c preprocessed version of dimacs_fpsol2.i.3, 132 vertices, 2023 edges
p td 132 2023
1 0
8 0
45 0
18 0
2 0
9 0
47 0
50 0
52 0
2 1
9 1
1 8
1 45
1 40
1 44
1 33
1 3
1 5
1 7
1 10
1 35
1 37
1 38
1 36
1 11
1 39
1 46
1 49
1 51
1 48
1 34
1 12
1 107
1 105
50 1
52 1
2 3
2 4
2 5
2 7
2 8
2 10
2 35
2 37
2 38
2 36
2 11
2 45
2 40
2 44
2 33
2 39
2 46
2 49
2 51
2 48
2 34
2 12
2 9
2 6
50 2
52 2
4 3
6 3
9 3
3 11
3 36
3 38
3 37
3 35
3 10
3 7
3 5
3 12
3 34
3 39
3 48
3 51
3 49
3 46
47 3
50 3
52 3
53 3
4 5
4 7
4 10
4 35
4 37
4 38
4 36
4 11
4 40
4 44
4 33
4 41
4 43
4 39
4 46
4 49
4 51
4 48
4 34
4 12
9 4
47 4
50 4
52 4
53 4
57 4
6 5
9 5
5 11
5 36
5 38
5 37
5 35
5 10
5 7
5 12
5 34
5 39
5 48
5 51
5 49
5 46
47 5
50 5
52 5
53 5
6 7
6 10
6 35
6 37
6 38
6 36
6 11
47 6
50 6
52 6
53 6
8 7
9 7
7 11
7 36
7 38
7 37
7 35
7 10
7 12
7 34
7 39
7 48
7 51
7 49
7 46
47 7
50 7
52 7
53 7
9 8
8 45
8 40
8 44
8 33
8 10
8 35
8 37
8 38
8 36
8 11
8 39
8 46
8 49
8 51
8 48
8 34
8 12
8 109
8 107
8 105
50 8
52 8
9 10
9 35
9 37
9 38
9 36
9 11
9 45
9 40
9 44
9 33
9 39
9 46
9 49
9 51
9 48
9 34
9 12
9 105
50 9
52 9
10 11
10 36
10 38
10 37
10 35
10 12
10 34
10 39
10 48
10 51
10 49
10 46
47 10
50 10
52 10
53 10
11 12
35 11
37 11
38 11
36 11
11 34
11 39
11 48
11 51
11 49
11 46
47 11
50 11
52 11
53 11
13 12
18 12
35 12
37 12
38 12
36 12
45 12
40 12
44 12
33 12
47 12
50 12
52 12
53 12
13 14
13 19
13 39
13 20
13 24
13 25
13 26
13 27
13 28
13 29
13 30
13 31
13 116
13 114
13 113
13 17
13 76
13 75
13 83
13 82
13 77
13 79
13 80
13 78
13 86
13 85
13 87
13 89
13 88
13 62
13 63
13 61
13 60
13 65
13 72
13 59
13 66
13 70
13 69
13 68
13 67
13 58
13 111
13 112
13 106
13 108
13 32
13 110
13 109
13 107
13 105
13 93
13 94
13 92
13 95
13 21
13 23
13 34
13 48
13 51
13 49
13 46
104 13
81 13
91 13
84 13
15 14
18 14
20 14
24 14
25 14
26 14
27 14
28 14
113 14
17 14
16 14
117 14
16 15
15 17
15 113
15 114
15 116
15 115
117 15
118 15
16 17
16 114
16 116
16 113
16 117
16 118
18 17
20 17
24 17
25 17
26 17
114 17
113 17
117 17
18 19
18 34
18 21
18 48
18 46
18 49
18 51
18 23
18 95
18 92
18 94
18 93
18 105
18 107
18 109
18 110
18 32
18 108
18 106
18 112
18 111
18 58
18 67
18 68
18 69
18 70
18 66
18 59
18 72
18 65
18 60
18 61
18 63
18 62
18 113
104 18
20 19
24 19
25 19
26 19
27 19
28 19
29 19
30 19
31 19
92 19
95 19
19 23
19 21
22 19
96 19
55 19
20 21
20 24
20 25
20 26
20 27
20 28
20 29
20 30
20 31
20 114
20 113
20 77
20 79
20 80
20 78
20 86
20 85
20 87
20 89
20 88
20 62
20 63
20 61
20 60
20 65
20 72
20 59
20 66
20 70
20 69
20 68
20 67
20 58
20 111
20 112
20 106
20 108
20 32
20 110
20 109
20 107
20 105
20 93
20 94
20 92
20 95
20 23
104 20
81 20
91 20
84 20
22 21
24 21
25 21
26 21
27 21
28 21
29 21
30 21
31 21
21 23
92 21
96 21
97 21
55 21
22 23
54 22
22 92
22 93
22 94
22 95
22 101
22 102
22 103
22 98
22 100
22 96
22 97
55 22
24 23
25 23
26 23
27 23
28 23
29 23
30 23
31 23
92 23
96 23
97 23
55 23
24 25
24 26
24 27
24 28
24 29
24 30
24 31
24 113
24 85
24 87
24 89
24 88
24 62
24 63
24 61
24 60
24 65
24 72
24 59
24 66
24 70
24 69
24 68
24 67
24 58
24 111
24 112
24 106
24 108
24 32
24 110
24 109
24 107
24 105
24 93
24 94
24 92
24 95
104 24
91 24
25 26
25 27
25 28
25 29
25 30
25 31
25 113
25 62
25 63
25 61
25 60
25 65
25 72
25 59
25 66
25 70
25 69
25 68
25 67
25 58
25 111
25 112
25 106
25 108
25 32
25 110
25 109
25 107
25 105
25 93
25 94
25 92
25 95
104 25
26 27
26 28
26 29
26 30
26 31
26 62
26 63
26 61
26 60
26 65
26 72
26 59
26 66
26 70
26 69
26 68
26 67
26 58
26 111
26 112
26 106
26 108
26 32
26 110
26 109
26 107
26 105
26 93
26 94
26 92
26 95
104 26
27 28
27 29
27 30
27 31
27 69
27 68
27 67
27 58
27 111
27 112
27 106
27 108
27 32
27 110
27 109
27 107
27 105
27 93
27 94
27 92
27 95
104 27
28 29
28 30
28 31
28 111
28 112
28 106
28 108
28 32
28 110
28 109
28 107
28 105
28 93
28 94
28 92
28 95
104 28
29 30
29 31
29 111
29 112
29 106
29 108
29 32
29 110
29 109
29 107
29 105
29 93
29 94
29 92
29 95
104 29
30 31
30 32
30 110
30 109
30 107
30 105
30 93
30 94
30 92
30 95
33 32
47 32
32 105
106 32
32 107
108 32
32 109
32 110
33 34
33 39
40 33
33 41
45 33
44 33
33 46
33 49
33 51
33 48
33 110
33 109
33 107
33 105
33 108
33 43
47 33
50 33
52 33
53 33
35 34
36 34
37 34
38 34
45 34
40 34
44 34
47 34
50 34
52 34
53 34
35 36
35 38
35 37
35 39
35 48
35 51
35 49
35 46
47 35
50 35
52 35
53 35
37 36
38 36
36 39
36 48
36 51
36 49
36 46
47 36
50 36
52 36
53 36
37 38
37 39
37 48
37 51
37 49
37 46
47 37
50 37
52 37
53 37
38 39
38 48
38 51
38 49
38 46
47 38
50 38
52 38
53 38
40 39
45 39
44 39
39 48
39 51
39 49
39 46
47 39
50 39
52 39
53 39
40 41
45 40
40 44
40 46
40 49
40 51
40 48
40 43
47 40
50 40
52 40
53 40
42 41
41 58
44 41
41 43
41 74
41 73
41 67
41 68
41 69
41 70
41 66
41 59
41 72
41 65
41 60
41 61
41 63
41 62
41 76
71 41
53 41
57 41
64 41
42 43
42 58
42 73
42 74
42 76
42 75
42 83
42 82
42 77
42 79
42 80
42 78
42 86
42 85
42 87
42 89
42 88
42 62
42 63
42 61
42 60
42 65
42 72
42 59
42 66
42 70
42 69
42 68
42 67
42 71
42 90
53 42
81 42
91 42
57 42
84 42
64 42
44 43
43 58
73 43
74 43
43 67
43 68
43 69
43 70
43 66
43 59
43 72
43 65
43 60
43 61
43 63
43 62
43 75
43 76
71 43
53 43
57 43
64 43
45 44
44 46
44 49
44 51
44 48
47 44
50 44
52 44
53 44
45 46
45 49
45 51
45 48
45 110
45 109
45 107
45 105
50 45
52 45
47 46
50 46
52 46
53 46
47 48
47 49
47 105
47 51
47 107
47 109
47 110
47 50
52 47
53 47
49 48
50 48
52 48
53 48
50 49
49 51
52 49
53 49
50 51
50 52
53 50
52 51
53 51
53 52
53 54
53 98
53 104
55 53
57 53
55 54
54 98
54 99
54 100
55 56
55 92
55 93
55 94
55 95
55 96
55 97
55 98
55 99
55 100
55 101
55 102
55 103
104 55
57 56
64 56
57 58
57 59
57 60
57 61
57 62
57 63
57 65
57 66
57 67
57 68
57 69
57 70
57 71
57 72
57 73
57 74
57 75
57 76
57 77
57 78
57 79
57 80
57 85
57 86
57 87
57 88
57 89
57 90
57 91
57 81
57 82
57 83
57 84
57 64
59 58
68 58
67 58
71 58
64 58
60 59
59 66
65 59
59 70
72 59
59 67
59 68
59 69
71 59
64 59
61 60
63 60
60 66
60 72
60 65
64 60
62 61
63 61
61 65
64 61
62 63
64 62
64 63
64 65
64 66
64 67
64 68
64 69
64 70
64 71
64 72
64 73
64 74
64 75
64 76
64 77
64 78
64 79
64 80
64 85
64 86
64 87
64 88
64 89
64 90
64 91
64 81
64 82
64 83
84 64
65 66
65 70
65 72
66 67
66 68
66 69
66 70
68 67
71 67
69 68
71 68
70 69
73 74
76 75
75 77
75 79
75 82
75 83
81 75
76 77
76 82
76 83
81 76
77 78
77 80
77 79
81 77
79 78
80 78
78 88
78 89
78 87
78 85
78 86
90 78
81 78
91 78
84 78
79 80
81 79
84 79
81 80
84 80
81 82
83 82
84 85
84 86
84 87
84 89
84 91
86 85
85 88
85 87
85 89
90 85
91 85
86 87
91 86
87 88
87 89
90 87
91 87
89 88
90 88
91 88
90 89
91 89
91 90
93 92
94 92
92 95
96 92
97 92
93 94
94 95
96 97
98 99
98 100
102 103
106 105
108 105
110 105
109 105
107 105
106 107
106 109
106 110
106 108
108 107
110 107
109 107
108 109
108 110
110 109
114 113
116 113
117 113
118 113
115 114
116 114
117 114
115 116
117 116
117 118
119 120
119 121
119 57
119 84
119 124
119 125
119 126
119 127
119 128
119 129
119 64
119 130
119 0
119 1
119 2
119 3
119 4
119 5
119 6
119 7
119 8
119 9
119 10
119 11
119 12
119 14
119 15
119 16
119 17
119 18
119 19
119 21
119 22
119 23
119 32
119 33
119 34
119 35
119 36
119 37
119 38
119 39
119 40
119 41
119 42
119 43
119 44
119 45
119 46
119 47
119 48
119 49
119 50
119 51
119 52
119 53
119 54
119 55
119 56
119 58
119 59
119 60
119 61
119 62
119 63
119 65
119 66
119 67
119 68
119 69
119 70
119 71
119 72
119 73
119 74
119 76
119 77
119 75
119 79
119 78
119 80
119 123
119 85
119 86
119 87
119 88
119 89
119 90
119 91
119 81
119 82
119 83
119 92
119 93
119 94
119 95
119 96
119 97
119 98
119 99
119 100
119 101
119 102
119 103
119 104
119 105
119 106
119 107
119 108
119 109
119 110
119 111
119 112
119 113
119 114
119 115
119 131
119 116
119 117
119 118
119 122
120 121
120 57
120 124
120 91
120 125
120 126
120 127
120 128
120 129
120 130
120 4
120 14
120 16
120 17
120 19
120 21
120 22
120 23
120 41
120 42
120 43
120 53
120 58
120 59
120 64
120 73
120 74
120 76
120 77
120 75
120 79
120 84
120 78
120 80
120 123
120 122
120 86
120 88
120 85
120 87
120 89
120 90
120 82
120 83
120 62
120 61
120 63
120 60
120 66
120 65
120 70
120 69
120 68
120 67
120 71
120 72
120 56
120 55
120 92
120 93
120 94
120 95
120 96
120 97
120 54
120 98
120 99
120 100
120 101
120 102
120 103
120 104
120 113
120 114
120 115
120 131
120 116
120 117
120 118
120 81
121 4
121 14
121 41
121 22
121 42
121 54
121 64
121 98
121 102
121 16
121 117
121 118
121 71
121 90
121 101
121 103
121 99
121 100
121 57
121 43
121 74
121 73
121 58
121 67
121 68
121 69
121 70
121 66
121 59
121 72
121 65
121 60
121 61
121 63
121 62
121 88
121 89
121 87
121 85
121 91
121 86
121 123
121 84
121 122
121 78
121 80
121 79
121 77
121 81
121 82
121 83
121 75
121 76
121 17
121 113
121 114
121 116
121 115
121 131
121 128
121 56
121 124
121 125
121 126
121 127
121 129
121 55
121 130
121 53
122 131
122 13
122 20
122 42
122 77
122 78
122 79
122 80
122 123
122 86
122 57
122 84
122 124
122 125
122 126
122 127
122 128
122 129
122 64
122 130
123 131
123 13
123 20
123 42
123 78
123 80
123 85
123 86
123 91
123 57
123 84
123 124
123 125
123 126
123 127
123 128
123 129
123 64
123 130
124 131
124 57
124 84
124 125
124 126
124 127
124 128
124 129
124 64
124 130
124 3
124 5
124 7
124 10
124 11
124 14
124 15
124 16
124 17
124 19
124 21
124 22
124 23
124 32
124 35
124 36
124 37
124 38
124 41
124 42
124 43
124 53
124 54
124 55
124 56
124 58
124 59
124 60
124 61
124 62
124 63
124 65
124 66
124 67
124 68
124 69
124 70
124 71
124 72
124 73
124 74
124 76
124 77
124 75
124 79
124 78
124 80
124 86
124 85
124 88
124 87
124 89
124 90
124 81
124 82
124 83
124 92
124 93
124 94
124 95
124 96
124 97
124 98
124 99
124 100
124 101
124 102
124 103
124 104
124 105
124 106
124 107
124 108
124 109
124 110
124 111
124 112
124 113
124 114
124 115
124 116
124 117
124 118
124 91
125 131
125 57
125 84
125 91
125 81
125 104
125 56
125 129
125 130
125 3
125 5
125 7
125 10
125 35
125 37
125 38
125 36
125 11
125 15
125 115
125 41
125 73
125 74
125 43
125 76
125 75
125 83
125 82
125 116
125 77
125 79
125 80
125 78
125 86
125 114
125 85
125 87
125 89
125 88
125 113
125 62
125 63
125 61
125 60
125 65
125 72
125 59
125 17
125 66
125 70
125 69
125 68
125 67
125 58
125 14
125 111
125 112
125 106
125 108
125 32
125 110
125 109
125 107
125 105
125 93
125 94
125 126
125 127
125 128
125 55
125 42
125 54
125 64
125 22
125 96
125 98
125 102
125 16
125 117
125 118
125 71
125 90
125 101
125 97
125 103
125 99
125 100
125 92
125 95
125 19
125 21
125 23
125 53
126 131
126 57
126 84
126 91
126 81
126 104
126 56
126 3
126 5
126 7
126 10
126 35
126 37
126 38
126 36
126 11
126 15
126 115
126 41
126 73
126 74
126 43
126 76
126 75
126 83
126 82
126 116
126 77
126 79
126 80
126 78
126 86
126 114
126 85
126 87
126 89
126 88
126 113
126 62
126 63
126 61
126 60
126 65
126 72
126 59
126 17
126 66
126 70
126 69
126 68
126 67
126 58
126 14
126 111
126 112
126 106
126 108
126 32
126 110
126 109
126 107
126 105
126 93
126 94
126 92
126 95
126 19
126 21
126 23
126 127
126 128
126 55
126 42
126 54
126 64
126 22
126 96
126 98
126 102
126 16
126 117
126 118
126 71
126 90
126 101
126 97
126 103
126 99
126 100
126 129
126 130
126 53
127 131
127 57
127 84
127 91
127 81
127 104
127 53
127 56
127 3
127 5
127 7
127 10
127 35
127 37
127 38
127 36
127 11
127 15
127 115
127 41
127 73
127 74
127 43
127 76
127 75
127 83
127 82
127 116
127 77
127 79
127 80
127 78
127 86
127 114
127 85
127 87
127 89
127 88
127 113
127 62
127 63
127 61
127 60
127 65
127 72
127 59
127 17
127 66
127 70
127 69
127 68
127 67
127 58
127 14
127 111
127 112
127 106
127 108
127 32
127 110
127 109
127 107
127 105
127 93
127 94
127 92
127 95
127 19
127 21
127 23
127 128
127 55
127 42
127 54
127 64
127 22
127 96
127 98
127 102
127 16
127 117
127 118
127 71
127 90
127 101
127 97
127 103
127 99
127 100
127 129
127 130
128 131
128 57
128 84
128 91
128 81
128 14
128 41
128 43
128 42
128 58
128 59
128 64
128 73
128 74
128 76
128 77
128 75
128 79
128 82
128 83
128 78
128 80
128 88
128 85
128 86
128 87
128 89
128 90
128 62
128 61
128 63
128 60
128 66
128 65
128 70
128 72
128 67
128 68
128 69
128 71
128 16
128 15
128 17
128 114
128 115
128 116
128 113
128 117
128 118
128 56
128 129
128 130
129 131
129 57
129 84
129 91
129 81
129 104
129 53
129 56
129 3
129 5
129 7
129 10
129 19
129 35
129 37
129 11
129 38
129 36
129 14
129 21
129 55
129 42
129 58
129 41
129 43
129 73
129 74
129 64
129 76
129 77
129 75
129 79
129 82
129 83
129 78
129 80
129 88
129 85
129 86
129 87
129 89
129 90
129 62
129 61
129 63
129 60
129 66
129 65
129 70
129 59
129 72
129 67
129 68
129 69
129 71
129 105
129 106
129 107
129 108
129 109
129 32
129 110
129 54
129 22
129 23
129 92
129 93
129 94
129 95
129 96
129 97
129 101
129 102
129 103
129 98
129 99
129 100
129 16
129 15
129 17
129 114
129 115
129 116
129 113
129 117
129 118
129 111
129 112
129 130
130 131
130 57
130 84
130 64
130 91
130 81
130 104
130 55
130 53
130 56
130 3
130 5
130 7
130 10
130 19
130 35
130 37
130 11
130 38
130 36
130 14
130 21
130 42
130 58
130 41
130 43
130 73
130 74
130 76
130 77
130 75
130 79
130 82
130 83
130 78
130 80
130 88
130 85
130 86
130 87
130 89
130 90
130 62
130 61
130 63
130 60
130 66
130 65
130 70
130 59
130 72
130 67
130 68
130 69
130 71
130 105
130 106
130 107
130 108
130 109
130 32
130 110
130 54
130 22
130 23
130 92
130 93
130 94
130 95
130 96
130 97
130 101
130 102
130 103
130 98
130 99
130 100
130 16
130 15
130 17
130 114
130 115
130 116
130 113
130 117
130 118
130 111
130 112
131 115
131 116
